
******************************************************************************
This program contains Ipopt, a library for large-scale nonlinear optimization.
 Ipopt is released as open source code under the Eclipse Public License (EPL).
         For more information visit http://projects.coin-or.org/Ipopt

This version of Ipopt was compiled from source code available at
    https://github.com/IDAES/Ipopt as part of the Institute for the Design of
    Advanced Energy Systems Process Systems Engineering Framework (IDAES PSE
    Framework) Copyright (c) 2018-2019. See https://github.com/IDAES/idaes-pse.

This version of Ipopt was compiled using HSL, a collection of Fortran codes
    for large-scale scientific computation.  All technical papers, sales and
    publicity material resulting from use of the HSL codes within IPOPT must
    contain the following acknowledgement:
        HSL, a collection of Fortran codes for large-scale scientific
        computation. See http://www.hsl.rl.ac.uk.
******************************************************************************

This is Ipopt version 3.13.2, running with linear solver ma27.

Number of nonzeros in equality constraint Jacobian...:      928
Number of nonzeros in inequality constraint Jacobian.:        0
Number of nonzeros in Lagrangian Hessian.............:      806

Total number of variables............................:      403
                     variables with only lower bounds:      124
                variables with lower and upper bounds:      217
                     variables with only upper bounds:        0
Total number of equality constraints.................:      402
Total number of inequality constraints...............:        0
        inequality constraints with only lower bounds:        0
   inequality constraints with lower and upper bounds:        0
        inequality constraints with only upper bounds:        0

iter    objective    inf_pr   inf_du lg(mu)  ||d||  lg(rg) alpha_du alpha_pr  ls
   0  0.0000000e+00 1.41e+00 1.24e-14  -1.0 0.00e+00    -  0.00e+00 0.00e+00   0
   1  5.8655007e-02 9.92e-01 6.12e+03  -1.0 7.17e+04    -  5.04e-01 3.17e-01h  2
   2  2.1958156e-01 5.89e-01 1.44e+04  -1.0 4.52e+04    -  6.07e-01 4.45e-01h  1
   3  2.2179387e-01 5.80e-01 1.43e+04  -1.0 1.08e+05    -  6.59e-01 1.43e-02h  1
   4  1.5553113e+00 3.75e-01 8.48e+03  -1.0 1.66e+05    -  6.87e-01 3.88e-01h  1
   5  9.7132987e+00 6.04e-02 4.24e+03  -1.0 1.11e+05    -  8.29e-01 9.90e-01h  1
   6  1.0577080e+01 2.34e-03 1.91e+02  -1.0 7.91e+03    -  9.57e-01 9.90e-01h  1
   7  1.0595525e+01 2.62e-05 2.63e+04  -1.0 1.66e+02    -  9.30e-01 9.90e-01h  1
   8  1.0630168e+01 2.46e-05 1.83e+07  -1.0 5.11e+03    -  4.81e-01 6.19e-02f  5
   9  1.0816075e+01 4.64e-06 2.35e+07  -1.0 1.70e+03    -  4.82e-01 9.90e-01H  1
iter    objective    inf_pr   inf_du lg(mu)  ||d||  lg(rg) alpha_du alpha_pr  ls
  10  1.0818362e+01 4.63e-06 4.58e+09  -1.0 5.35e+03    -  9.90e-01 3.87e-03h  9
  11  1.1203789e+01 3.98e-06 1.74e+09  -1.0 3.48e+03    -  6.09e-01 9.90e-01H  1
  12  1.1452583e+01 7.80e-07 2.01e+09  -1.0 2.22e+03    -  9.94e-01 9.90e-01H  1
In iteration 12, 31 Slacks too small, adjusting variable bounds
  13  1.1429837e+01 5.43e-07 4.68e+11  -1.0 2.02e+02    -  1.00e+00 9.90e-01h  1
  14  1.1429037e+01 5.72e-10 4.27e-03  -1.0 7.03e+00    -  1.00e+00 1.00e+00h  1
  15  1.1415586e+01 1.87e-07 4.65e+11  -9.0 1.22e+04    -  9.84e-01 9.71e-03f  7
  16  1.1402355e+01 3.66e-07 4.68e+11  -9.0 1.17e+04    -  9.86e-01 9.95e-03f  7
  17  1.1389341e+01 5.35e-07 4.63e+11  -9.0 1.04e+04    -  9.90e-01 1.10e-02f  7
  18  1.1386140e+01 5.44e-07 4.62e+11  -9.0 9.33e+03    -  1.00e+00 3.02e-03f  9
  19  1.1384546e+01 5.45e-07 4.61e+11  -9.0 8.58e+03    -  1.00e+00 1.64e-03f 10
iter    objective    inf_pr   inf_du lg(mu)  ||d||  lg(rg) alpha_du alpha_pr  ls
  20  1.0585402e+01 6.40e-04 5.24e+10  -9.0 8.09e+03    -  1.00e+00 8.86e-01f  1
  21  1.0589045e+01 8.83e-07 9.67e-03  -9.0 3.47e+01    -  9.96e-01 1.00e+00h  1
  22  1.0589045e+01 3.39e-12 4.74e-08  -9.0 5.93e-04    -  1.00e+00 1.00e+00h  1
  23  1.0589045e+01 2.39e-12 5.46e-12  -9.0 3.20e-07    -  1.00e+00 1.00e+00h  1

Number of Iterations....: 23

                                   (scaled)                 (unscaled)
Objective...............:   1.0589044900807114e+01    1.0589044900807114e+01
Dual infeasibility......:   5.4569682106375694e-12    5.4569682106375694e-12
Constraint violation....:   2.3927526626721374e-12    2.3927526626721374e-12
Complementarity.........:   9.0909090909099792e-10    9.0909090909099792e-10
Overall NLP error.......:   3.8044746891823435e-10    9.0909090909099792e-10


Number of objective function evaluations             = 96
Number of objective gradient evaluations             = 24
Number of equality constraint evaluations            = 96
Number of inequality constraint evaluations          = 0
Number of equality constraint Jacobian evaluations   = 24
Number of inequality constraint Jacobian evaluations = 0
Number of Lagrangian Hessian evaluations             = 23
Total CPU secs in IPOPT (w/o function evaluations)   =      0.053
Total CPU secs in NLP function evaluations           =      0.995

EXIT: Optimal Solution Found.
